SECTION Graph
Nodes 1360
Edges 2607
E 1 1268 6
E 1 1269 1
E 1 1271 1
E 2 1274 2
E 3 1237 42
E 3 1270 5
E 3 1272 1
E 3 1273 7
E 4 1263 23
E 4 1272 3
E 5 6 2
E 5 879 5
E 5 901 1
E 5 930 6
E 6 889 5
E 6 915 1
E 6 939 6
E 7 8 2
E 7 930 9
E 8 939 9
E 9 901 6
E 9 930 1
E 10 219 1
E 10 918 6
E 11 26 1
E 11 642 4
E 11 679 1
E 11 708 6
E 12 27 1
E 12 678 4
E 12 707 1
E 12 732 6
E 13 14 1
E 13 225 8
E 14 21 2
E 14 226 8
E 15 16 1
E 15 228 8
E 15 770 1
E 16 229 8
E 17 19 6
E 17 28 1
E 17 220 1
E 18 29 1
E 18 223 2
E 18 720 6
E 19 26 1
E 19 626 4
E 20 27 1
E 20 221 6
E 20 661 4
E 20 679 2
E 21 734 8
E 21 770 1
E 22 28 1
E 22 224 1
E 23 29 1
E 23 229 2
E 24 1226 1
E 24 1227 1
E 24 1231 1
E 24 1235 5
E 25 1227 12
E 25 1243 1
E 26 220 6
E 26 634 4
E 27 222 6
E 27 670 4
E 28 709 1
E 29 234 2
E 30 31 10
E 30 52 7
E 30 968 1
E 30 988 3
E 31 53 7
E 31 1046 3
E 32 994 10
E 32 1046 1
E 32 1110 13
E 33 34 10
E 33 856 8
E 33 878 1
E 33 899 3
E 34 892 8
E 34 934 1
E 34 944 3
E 35 934 3
E 35 944 1
E 35 963 6
E 36 37 10
E 36 778 1
E 36 779 1
E 36 790 2
E 37 822 1
E 37 841 3
E 38 792 12
E 38 841 1
E 38 864 6
E 39 40 10
E 39 619 4
E 39 640 1
E 39 652 1
E 40 690 4
E 40 718 1
E 40 719 1
E 41 724 2
E 41 728 1
E 41 756 6
E 42 43 1
E 42 97 3
E 42 345 2
E 42 357 1
E 43 344 3
E 43 362 1
E 43 373 3
E 44 415 1
E 44 437 2
E 45 436 1
E 45 437 1
E 45 510 13
E 46 1187 3
E 46 1193 1
E 46 1198 1
E 46 1199 1
E 47 1203 10
E 47 1222 1
E 47 1223 3
E 47 1230 6
E 48 49 10
E 48 1051 2
E 48 1057 1
E 48 1103 9
E 49 1097 2
E 49 1110 1
E 49 1218 44
E 50 974 6
E 50 987 3
E 50 1010 1
E 50 1023 4
E 51 1020 10
E 51 1046 6
E 51 1091 4
E 52 53 10
E 52 938 4
E 52 950 1
E 53 55 7
E 53 994 1
E 54 898 3
E 54 904 2
E 54 912 1
E 54 913 1
E 55 924 10
E 55 944 6
E 55 963 1
E 56 57 10
E 56 849 1
E 56 850 1
E 56 856 1
E 57 884 1
E 57 892 1
E 57 893 1
E 58 795 3
E 58 801 1
E 58 808 1
E 58 820 3
E 59 821 10
E 59 860 1
E 59 864 1
E 59 869 3
E 60 61 10
E 60 713 6
E 60 740 1
E 60 746 1
E 61 755 6
E 61 791 1
E 61 792 1
E 62 64 4
E 62 665 3
E 62 694 1
E 62 695 1
E 63 65 4
E 63 706 10
E 63 755 1
E 63 756 1
E 64 638 3
E 64 650 1
E 64 666 1
E 65 686 10
E 65 728 2
E 66 67 10
E 66 545 1
E 66 546 1
E 66 563 1
E 67 620 1
E 67 633 1
E 67 634 1
E 68 449 2
E 68 452 1
E 68 462 1
E 68 473 3
E 69 71 2
E 69 462 10
E 69 529 1
E 69 547 3
E 70 71 10
E 70 72 1
E 70 449 1
E 70 462 2
E 71 73 1
E 71 515 1
E 72 73 10
E 72 435 3
E 72 445 1
E 73 487 3
E 73 510 1
E 74 361 3
E 74 373 1
E 74 385 1
E 74 414 6
E 75 392 10
E 75 436 3
E 75 453 1
E 76 77 10
E 76 78 1
E 76 317 2
E 76 346 3
E 77 79 1
E 77 400 3
E 78 79 10
E 78 315 2
E 78 318 1
E 79 81 1
E 80 311 1
E 81 318 10
E 82 235 1
E 82 1225 6
E 82 1233 1
E 82 1240 6
E 83 235 1
E 83 1212 18
E 83 1244 6
E 84 1240 9
E 84 1250 1
E 84 1251 1
E 84 1254 3
E 85 1244 9
E 85 1251 1
E 85 1253 1
E 85 1258 3
E 86 1192 29
E 86 1233 6
E 86 1240 1
E 86 1247 5
E 87 1214 24
E 87 1244 1
E 87 1253 9
E 88 715 3
E 88 725 1
E 88 738 1
E 88 775 10
E 89 775 3
E 89 776 3
E 89 795 1
E 89 801 3
E 90 574 1
E 90 575 1
E 90 591 1
E 90 649 10
E 91 649 3
E 91 665 1
E 91 685 1
E 91 694 3
E 92 405 4
E 92 419 1
E 92 432 1
E 92 478 10
E 93 460 6
E 93 478 3
E 93 503 1
E 93 514 3
E 94 296 2
E 94 300 1
E 94 306 1
E 94 343 10
E 95 343 3
E 95 344 3
E 95 361 1
E 95 373 3
E 96 283 1
E 96 284 1
E 96 293 1
E 96 324 10
E 97 324 3
E 97 328 2
E 97 344 1
E 98 955 1
E 98 956 1
E 98 961 2
E 98 1000 10
E 99 956 12
E 99 1001 1
E 99 1008 1
E 99 1009 1
E 100 101 10
E 100 738 6
E 100 754 1
E 100 763 1
E 101 782 6
E 101 806 1
E 101 812 2
E 102 656 5
E 102 683 2
E 102 698 1
E 102 699 1
E 103 104 10
E 103 637 6
E 103 673 1
E 103 689 1
E 104 106 7
E 104 742 1
E 104 749 3
E 105 106 10
E 105 622 1
E 105 623 1
E 105 637 1
E 106 693 1
E 106 716 3
E 107 495 5
E 107 516 1
E 107 534 1
E 107 535 1
E 108 109 10
E 108 507 1
E 108 508 1
E 108 517 1
E 109 583 1
E 109 597 1
E 109 612 3
E 110 111 10
E 110 439 5
E 110 457 1
E 110 472 2
E 111 492 5
E 111 525 1
E 111 543 3
E 112 351 6
E 112 378 1
E 112 390 1
E 112 396 2
E 113 114 10
E 113 356 3
E 113 367 1
E 113 384 2
E 114 412 3
E 114 443 2
E 114 447 3
E 115 116 10
E 115 312 3
E 115 323 1
E 115 342 3
E 116 360 3
E 116 397 3
E 116 398 3
E 117 249 22
E 117 276 3
E 117 279 1
E 117 280 1
E 118 119 10
E 118 271 3
E 118 276 1
E 118 280 3
E 119 294 4
E 119 313 3
E 119 314 3
E 120 121 10
E 120 1071 2
E 120 1074 1
E 120 1088 2
E 121 1120 1
E 121 1130 2
E 121 1181 24
E 122 1101 10
E 122 1133 1
E 122 1144 2
E 122 1190 23
E 123 124 10
E 123 144 9
E 123 959 2
E 123 977 3
E 124 145 9
E 124 1027 3
E 124 1049 6
E 125 972 12
E 125 1027 1
E 125 1063 5
E 125 1067 6
E 126 127 10
E 126 148 9
E 126 861 2
E 126 877 3
E 127 149 9
E 127 910 1
E 127 920 3
E 128 910 3
E 128 920 1
E 128 932 1
E 128 949 5
E 129 130 10
E 129 154 13
E 129 750 2
E 129 772 3
E 130 773 7
E 130 805 1
E 130 810 2
E 131 816 1
E 131 817 1
E 131 830 2
E 131 846 5
E 132 133 1
E 132 375 16
E 132 455 2
E 132 469 1
E 133 380 16
E 133 474 1
E 133 488 3
E 134 532 1
E 134 533 1
E 134 559 2
E 134 582 5
E 135 558 1
E 135 559 1
E 135 590 3
E 135 603 5
E 136 137 10
E 136 1136 2
E 136 1137 2
E 136 1146 1
E 137 139 7
E 137 1163 1
E 137 1164 1
E 138 1098 2
E 138 1104 1
E 138 1111 1
E 138 1126 5
E 139 1119 10
E 139 1143 3
E 139 1155 1
E 140 141 10
E 140 1006 7
E 140 1037 2
E 140 1074 6
E 141 143 7
E 141 1101 1
E 141 1120 6
E 142 958 9
E 142 998 1
E 142 1026 7
E 143 1006 10
E 143 1027 6
E 143 1067 1
E 144 145 10
E 144 905 7
E 144 925 2
E 145 147 7
E 145 972 1
E 146 857 9
E 146 894 1
E 146 919 7
E 147 905 10
E 147 931 4
E 147 951 1
E 148 149 10
E 148 799 7
E 148 823 2
E 149 151 7
E 149 871 1
E 150 152 4
E 150 793 1
E 150 815 7
E 151 153 4
E 151 799 10
E 151 851 1
E 152 747 5
E 152 771 1
E 153 785 10
E 153 816 2
E 153 830 1
E 154 155 10
E 154 681 3
E 154 691 1
E 155 736 3
E 155 751 1
E 155 773 6
E 156 581 2
E 156 588 1
E 156 602 1
E 156 616 3
E 157 159 2
E 157 602 10
E 157 682 1
E 157 692 3
E 158 159 10
E 158 160 1
E 158 581 1
E 158 602 2
E 159 161 1
E 159 664 1
E 160 161 10
E 160 566 2
E 160 572 1
E 161 635 2
E 161 656 1
E 162 468 4
E 162 488 1
E 162 498 1
E 162 555 9
E 163 506 10
E 163 573 1
E 163 589 1
E 163 590 1
E 164 165 10
E 164 166 1
E 164 429 2
E 164 464 5
E 165 167 1
E 165 501 1
E 165 522 5
E 166 167 10
E 166 423 2
E 166 430 1
E 167 169 1
E 167 495 1
E 168 409 1
E 168 410 1
E 168 417 1
E 168 424 2
E 169 430 10
E 169 476 1
E 169 491 1
E 170 171 2
E 170 1005 6
E 171 993 1
E 171 1017 6
E 172 173 2
E 172 1005 9
E 172 1055 1
E 172 1065 2
E 173 1017 9
E 173 1070 1
E 173 1073 2
E 174 1005 1
E 174 1055 9
E 175 993 6
E 175 1017 1
E 175 1036 2
E 175 1070 9
E 176 272 2
E 176 273 1
E 176 286 5
E 176 304 10
E 177 304 3
E 177 308 2
E 177 332 4
E 177 336 5
E 178 241 4
E 178 243 1
E 178 247 3
E 178 258 10
E 179 257 4
E 179 258 3
E 179 262 3
E 179 310 22
E 180 530 1
E 180 627 12
E 181 530 12
E 181 548 10
E 181 627 1
E 181 648 4
E 182 183 10
E 182 286 2
E 182 290 1
E 182 320 8
E 183 321 2
E 183 339 2
E 183 371 8
E 184 253 10
E 184 263 1
E 184 273 6
E 185 186 10
E 185 259 2
E 185 261 1
E 186 274 2
E 186 277 1
E 186 282 3
E 187 188 10
E 187 247 4
E 187 253 1
E 187 259 5
E 188 260 4
E 188 270 3
E 188 274 5
E 189 240 1
E 189 243 6
E 190 191 10
E 190 237 1
E 190 238 1
E 191 244 1
E 191 246 1
E 191 251 3
E 192 193 10
E 192 236 5
E 193 242 5
E 193 264 25
E 194 195 1
E 194 965 1
E 195 969 1
E 195 979 3
E 196 997 5
E 196 1015 1
E 196 1035 2
E 196 1053 5
E 197 1034 1
E 197 1035 1
E 197 1139 23
E 198 199 10
E 198 1064 14
E 198 1122 1
E 199 1153 1
E 199 1159 1
E 199 1209 24
E 200 1052 2
E 200 1064 1
E 200 1122 14
E 201 203 2
E 201 1064 10
E 201 1150 12
E 201 1173 24
E 202 203 10
E 202 204 1
E 202 1052 1
E 202 1064 2
E 203 205 1
E 203 1170 24
E 204 205 10
E 204 1002 9
E 204 1047 1
E 205 1058 9
E 205 1167 24
E 206 979 1
E 206 989 1
E 207 996 10
E 207 1034 3
E 207 1058 1
E 207 1149 24
E 208 209 10
E 208 210 1
E 208 945 2
E 208 954 1
E 209 211 1
E 209 991 1
E 209 992 1
E 210 211 10
E 210 940 2
E 210 946 1
E 211 213 1
E 211 985 1
E 212 935 1
E 212 941 2
E 213 946 10
E 213 971 1
E 213 981 1
E 214 285 6
E 215 285 5
E 215 301 1
E 215 307 1
E 215 325 6
E 216 285 1
E 216 301 5
E 217 285 1
E 217 307 5
E 218 1122 15
E 218 1159 25
E 219 915 6
E 219 939 1
E 220 708 1
E 220 709 1
E 221 222 1
E 221 232 1
E 221 714 2
E 222 732 1
E 222 733 1
E 223 234 1
E 223 707 6
E 223 732 1
E 224 225 1
E 224 709 1
E 225 226 1
E 225 230 1
E 226 231 1
E 226 734 2
E 227 228 1
E 227 733 1
E 227 734 1
E 227 770 8
E 228 229 1
E 228 233 1
E 229 234 1
E 230 231 1
E 230 708 1
E 230 709 1
E 231 232 2
E 231 714 1
E 232 733 1
E 232 734 1
E 233 234 1
E 233 732 1
E 233 733 1
E 235 1228 6
E 235 1242 6
E 236 237 3
E 236 242 10
E 237 244 10
E 238 239 1
E 238 246 10
E 239 240 1
E 239 248 10
E 240 241 2
E 240 250 10
E 241 254 10
E 242 244 3
E 242 245 3
E 243 253 7
E 244 249 3
E 245 249 3
E 245 276 22
E 246 248 1
E 246 252 3
E 247 260 10
E 248 250 1
E 248 255 3
E 249 251 1
E 250 254 2
E 250 256 3
E 251 252 1
E 251 279 22
E 252 255 1
E 252 283 22
E 254 257 3
E 254 258 4
E 255 256 1
E 255 288 22
E 256 257 2
E 256 292 22
E 257 300 22
E 258 260 3
E 259 274 10
E 260 262 3
E 261 263 2
E 261 277 10
E 262 267 3
E 262 323 22
E 263 272 4
E 263 281 10
E 264 265 1
E 264 266 1
E 265 268 1
E 265 269 1
E 266 269 1
E 266 289 10
E 267 270 1
E 267 337 22
E 268 271 1
E 268 276 3
E 269 271 1
E 269 294 10
E 270 275 2
E 270 341 22
E 271 317 17
E 272 297 10
E 273 290 7
E 274 278 3
E 275 278 3
E 275 352 22
E 277 281 2
E 277 287 3
E 278 282 2
E 278 291 4
E 279 283 1
E 279 284 1
E 280 284 1
E 280 313 10
E 281 295 3
E 281 297 4
E 282 287 1
E 282 298 4
E 283 288 1
E 284 316 10
E 286 321 10
E 287 295 2
E 287 302 4
E 288 292 1
E 288 293 1
E 289 294 1
E 289 311 7
E 290 319 9
E 291 298 2
E 291 299 2
E 292 296 1
E 292 300 2
E 293 296 1
E 293 327 10
E 294 315 7
E 295 308 4
E 295 396 22
E 296 368 17
E 297 304 2
E 297 308 3
E 298 302 1
E 298 305 2
E 299 305 2
E 299 367 16
E 300 303 1
E 301 319 6
E 302 309 2
E 302 322 6
E 303 306 1
E 303 310 3
E 304 321 5
E 305 309 1
E 305 378 16
E 306 312 3
E 306 349 10
E 307 330 6
E 308 322 4
E 309 333 6
E 309 351 10
E 310 312 1
E 310 323 3
E 311 315 1
E 311 318 2
E 312 360 10
E 313 316 1
E 313 328 3
E 314 328 3
E 314 329 3
E 315 317 1
E 316 324 1
E 316 353 7
E 317 334 3
E 319 325 1
E 319 326 1
E 320 326 1
E 320 371 10
E 321 336 3
E 322 332 2
E 322 333 2
E 323 337 3
E 324 327 1
E 325 330 1
E 325 331 1
E 326 331 1
E 326 376 10
E 327 343 3
E 327 344 3
E 328 345 3
E 329 334 1
E 329 345 3
E 330 335 1
E 331 335 1
E 331 381 10
E 332 340 2
E 332 355 5
E 333 340 2
E 333 383 10
E 334 338 1
E 334 350 3
E 335 364 6
E 335 387 10
E 336 347 2
E 336 355 4
E 337 341 1
E 337 342 1
E 338 346 1
E 338 354 3
E 339 347 1
E 339 382 8
E 340 366 5
E 340 395 10
E 341 348 1
E 341 352 2
E 342 348 1
E 342 397 10
E 343 349 1
E 345 350 1
E 346 358 3
E 346 400 10
E 347 359 3
E 347 389 8
E 348 356 2
E 348 406 10
E 349 360 3
E 349 361 3
E 350 353 1
E 350 354 1
E 351 383 6
E 352 356 1
E 352 367 3
E 353 357 1
E 354 358 1
E 354 363 2
E 355 365 2
E 355 366 2
E 356 412 10
E 357 362 1
E 357 363 1
E 358 370 2
E 358 415 10
E 359 365 1
E 359 409 8
E 360 407 7
E 361 398 6
E 362 368 1
E 362 369 1
E 363 369 1
E 363 370 1
E 364 375 2
E 364 455 16
E 365 372 1
E 365 410 7
E 366 377 2
E 366 425 10
E 367 378 2
E 368 379 2
E 369 374 1
E 369 386 3
E 370 374 1
E 370 428 10
E 371 376 1
E 371 382 2
E 372 377 1
E 372 475 19
E 373 379 1
E 374 392 3
E 374 436 10
E 375 380 1
E 376 381 1
E 376 388 2
E 377 418 7
E 377 438 10
E 378 384 1
E 379 385 1
E 379 386 1
E 380 401 3
E 381 387 1
E 381 393 2
E 382 388 1
E 382 389 1
E 383 395 2
E 383 419 6
E 384 390 1
E 384 443 10
E 385 391 1
E 385 407 3
E 386 391 1
E 386 392 1
E 387 402 2
E 388 393 1
E 388 394 1
E 389 394 1
E 389 409 3
E 390 405 2
E 390 446 10
E 391 399 1
E 391 427 6
E 392 399 1
E 393 402 1
E 393 403 1
E 394 403 1
E 394 411 3
E 395 404 1
E 395 425 5
E 396 405 1
E 396 419 4
E 397 406 1
E 397 413 3
E 398 413 3
E 398 414 3
E 399 435 6
E 399 453 10
E 400 415 3
E 401 408 1
E 401 463 12
E 402 422 4
E 402 463 12
E 403 416 3
E 404 431 5
E 404 442 7
E 405 496 17
E 406 412 2
E 406 420 3
E 407 421 3
E 408 454 9
E 408 468 12
E 409 411 1
E 410 418 2
E 411 416 1
E 411 417 1
E 412 433 3
E 413 420 1
E 413 434 3
E 414 421 1
E 414 434 3
E 415 428 2
E 416 422 1
E 416 423 1
E 417 423 1
E 417 430 2
E 418 424 1
E 418 471 10
E 419 426 1
E 420 433 2
E 420 440 3
E 421 427 1
E 421 441 3
E 422 429 1
E 422 450 5
E 423 429 1
E 424 430 1
E 424 476 10
E 425 438 2
E 425 457 6
E 426 431 1
E 426 432 1
E 427 435 1
E 427 445 3
E 428 436 1
E 428 437 1
E 429 451 4
E 431 439 1
E 431 457 5
E 432 439 1
E 432 484 10
E 433 447 3
E 433 448 3
E 434 440 1
E 434 441 1
E 435 487 10
E 438 442 1
E 438 471 7
E 439 492 10
E 440 444 1
E 440 448 2
E 441 444 1
E 441 445 1
E 442 465 5
E 442 477 7
E 443 446 1
E 443 480 7
E 444 449 1
E 444 452 2
E 445 449 1
E 446 460 3
E 446 478 6
E 447 460 3
E 447 461 3
E 448 452 1
E 448 461 3
E 450 455 1
E 450 456 1
E 451 456 1
E 452 466 3
E 453 487 6
E 454 458 1
E 454 521 12
E 455 459 1
E 456 459 1
E 456 464 2
E 457 465 2
E 458 467 2
E 458 531 12
E 459 469 2
E 459 470 2
E 460 479 3
E 461 466 1
E 461 479 3
E 462 481 3
E 463 468 1
E 463 488 4
E 464 470 1
E 464 522 10
E 465 472 1
E 465 502 6
E 466 473 1
E 466 480 2
E 467 530 10
E 467 548 12
E 468 521 9
E 469 474 1
E 469 475 1
E 470 483 2
E 470 532 10
E 471 476 1
E 471 477 1
E 472 508 6
E 472 536 10
E 473 481 1
E 473 486 2
E 474 482 1
E 474 489 2
E 475 482 1
E 475 483 1
E 476 512 6
E 477 491 2
E 477 507 5
E 478 484 1
E 479 485 1
E 479 514 6
E 480 485 1
E 480 486 1
E 481 497 3
E 481 547 10
E 482 490 1
E 482 499 3
E 483 490 1
E 483 551 10
E 484 492 1
E 484 503 3
E 485 493 1
E 485 496 2
E 486 493 1
E 488 494 1
E 489 494 1
E 490 500 2
E 490 558 10
E 491 495 1
E 491 516 5
E 492 509 3
E 493 497 1
E 493 504 2
E 494 498 1
E 494 499 1
E 495 501 1
E 496 504 1
E 496 520 4
E 497 540 6
E 498 505 1
E 498 541 6
E 499 505 1
E 499 506 1
E 500 506 1
E 500 573 10
E 501 523 4
E 501 534 5
E 502 507 1
E 502 508 1
E 503 509 1
E 503 519 3
E 504 528 4
E 505 511 1
E 505 550 6
E 506 511 1
E 507 512 1
E 508 583 10
E 509 513 1
E 509 526 3
E 510 515 1
E 511 557 6
E 511 589 10
E 512 516 1
E 512 517 1
E 513 518 1
E 513 544 4
E 514 519 1
E 514 520 1
E 515 529 2
E 516 524 1
E 517 524 1
E 517 597 10
E 518 537 2
E 518 553 4
E 519 526 1
E 519 527 1
E 520 527 1
E 520 528 1
E 521 531 1
E 521 555 4
E 522 532 1
E 522 533 1
E 523 533 1
E 523 567 5
E 524 535 1
E 524 605 10
E 525 536 1
E 525 552 3
E 526 538 1
E 526 561 4
E 527 538 1
E 527 539 1
E 528 539 1
E 528 540 1
E 529 626 13
E 531 548 2
E 531 564 4
E 532 551 2
E 533 574 5
E 534 542 1
E 534 567 4
E 535 542 1
E 535 611 10
E 536 560 3
E 536 583 6
E 537 543 1
E 537 561 3
E 538 544 1
E 538 545 1
E 539 545 1
E 539 546 1
E 540 546 1
E 540 614 10
E 541 549 1
E 541 550 1
E 542 575 4
E 542 618 10
E 543 552 1
E 543 568 3
E 544 553 1
E 544 554 1
E 545 554 1
E 546 620 10
E 547 614 9
E 548 580 4
E 549 565 2
E 550 556 1
E 550 557 1
E 551 558 1
E 551 559 1
E 552 560 1
E 552 577 3
E 553 562 1
E 553 569 2
E 554 562 1
E 554 563 1
E 555 564 1
E 555 565 1
E 556 566 1
E 556 572 2
E 557 566 1
E 557 628 10
E 558 573 2
E 559 596 5
E 560 576 2
E 560 584 3
E 561 568 1
E 561 569 1
E 562 570 1
E 562 579 2
E 563 570 1
E 563 633 10
E 564 571 1
E 564 580 2
E 565 571 1
E 565 572 1
E 566 635 10
E 567 574 1
E 567 575 1
E 568 577 1
E 568 578 1
E 569 578 1
E 569 579 1
E 570 587 2
E 570 641 10
E 571 581 1
E 571 588 2
E 572 581 1
E 573 617 6
E 574 582 1
E 575 644 10
E 576 598 3
E 576 606 4
E 577 584 1
E 577 585 1
E 578 585 1
E 578 586 1
E 579 586 1
E 579 587 1
E 580 588 1
E 580 601 3
E 582 591 1
E 582 596 2
E 583 606 3
E 584 592 1
E 584 598 2
E 585 592 1
E 585 593 1
E 586 593 1
E 586 594 1
E 587 594 1
E 587 653 10
E 588 609 3
E 589 595 1
E 589 628 6
E 590 595 1
E 590 622 5
E 591 604 2
E 591 657 10
E 592 599 1
E 592 607 2
E 593 599 1
E 593 600 1
E 594 600 1
E 594 660 10
E 595 629 5
E 595 636 6
E 596 603 1
E 596 604 1
E 597 605 1
E 598 607 1
E 598 625 4
E 599 608 1
E 599 613 2
E 600 608 1
E 600 669 10
E 601 609 1
E 601 648 7
E 602 621 3
E 603 610 1
E 603 617 2
E 604 610 1
E 604 674 10
E 605 611 1
E 605 624 3
E 606 612 1
E 606 625 3
E 607 613 1
E 607 632 4
E 608 619 2
E 608 677 10
E 609 615 1
E 609 616 1
E 610 623 2
E 610 684 10
E 611 618 1
E 611 630 3
E 612 624 2
E 612 631 3
E 613 619 1
E 613 640 4
E 614 620 1
E 615 655 6
E 616 621 1
E 616 663 7
E 617 622 1
E 617 623 1
E 618 638 3
E 618 644 4
E 619 690 10
E 620 626 1
E 621 672 7
E 621 692 10
E 622 629 1
E 623 693 10
E 624 630 1
E 624 645 3
E 625 631 1
E 625 632 1
E 626 634 1
E 627 654 4
E 628 635 1
E 628 636 1
E 629 637 1
E 629 673 6
E 630 638 1
E 630 650 3
E 631 639 1
E 631 645 2
E 632 639 1
E 632 640 1
E 633 641 1
E 633 642 1
E 634 642 1
E 635 643 1
E 636 643 1
E 636 673 5
E 638 665 4
E 639 646 1
E 639 651 2
E 640 646 1
E 641 647 1
E 641 653 2
E 642 647 1
E 643 656 2
E 643 683 5
E 644 649 1
E 644 665 3
E 645 650 1
E 645 651 1
E 646 652 1
E 646 659 2
E 647 661 2
E 647 679 4
E 648 654 1
E 648 655 1
E 649 657 1
E 650 658 1
E 651 658 1
E 651 659 1
E 652 668 2
E 652 718 10
E 653 660 1
E 653 661 1
E 654 662 1
E 654 680 3
E 655 662 1
E 655 663 1
E 656 664 1
E 657 674 2
E 657 685 3
E 658 666 1
E 658 667 1
E 659 667 1
E 659 668 1
E 660 669 1
E 660 670 1
E 661 670 1
E 662 671 1
E 662 688 3
E 663 671 1
E 663 672 1
E 664 682 2
E 664 698 5
E 666 675 1
E 666 695 4
E 667 675 1
E 667 676 1
E 668 676 1
E 668 728 10
E 669 677 1
E 669 678 1
E 670 678 1
E 671 681 1
E 671 691 3
E 672 681 1
E 672 729 10
E 673 683 1
E 674 684 1
E 675 686 1
E 675 702 4
E 676 686 1
E 677 687 1
E 677 690 2
E 678 687 1
E 679 714 6
E 680 688 1
E 680 747 13
E 681 736 10
E 682 697 3
E 682 710 5
E 683 689 1
E 684 693 2
E 684 700 3
E 685 700 3
E 686 706 4
E 687 696 2
E 687 707 4
E 688 691 1
E 688 721 6
E 689 699 2
E 689 742 10
E 690 696 1
E 692 697 1
E 692 729 7
E 693 711 3
E 694 701 1
E 694 726 6
E 695 701 1
E 695 702 1
E 696 719 4
E 696 720 4
E 697 725 5
E 697 737 7
E 698 703 1
E 698 710 2
E 699 703 1
E 699 748 10
E 700 711 2
E 701 704 1
E 701 705 1
E 702 705 1
E 702 706 1
E 703 715 2
E 703 752 10
E 704 717 2
E 705 712 1
E 705 713 1
E 706 713 1
E 707 720 2
E 708 714 1
E 710 715 1
E 710 725 3
E 711 716 1
E 711 726 3
E 712 723 2
E 713 755 10
E 715 759 10
E 716 730 3
E 716 749 7
E 717 722 1
E 718 724 1
E 718 728 2
E 719 724 1
E 721 735 3
E 722 731 2
E 723 727 1
E 725 754 7
E 726 730 1
E 726 731 1
E 727 740 2
E 729 736 1
E 729 737 1
E 730 739 1
E 730 761 7
E 731 739 1
E 731 740 1
E 735 750 4
E 736 741 1
E 737 741 1
E 737 754 5
E 738 782 10
E 739 743 1
E 739 744 1
E 740 744 1
E 741 751 3
E 741 758 5
E 742 748 2
E 742 753 3
E 743 766 6
E 744 745 1
E 744 746 1
E 745 769 6
E 746 779 7
E 746 791 10
E 747 750 1
E 748 752 1
E 748 760 3
E 749 753 1
E 749 761 3
E 750 757 2
E 751 774 5
E 751 780 6
E 752 759 2
E 752 764 3
E 753 760 2
E 753 765 3
E 754 758 1
E 756 792 7
E 757 762 1
E 758 763 1
E 758 774 3
E 759 775 3
E 759 776 3
E 760 764 1
E 760 777 3
E 761 765 1
E 761 766 1
E 762 771 2
E 762 772 2
E 763 767 1
E 763 806 10
E 764 776 2
E 764 783 3
E 765 768 1
E 765 777 2
E 766 768 1
E 766 769 1
E 767 781 2
E 767 811 10
E 768 778 1
E 768 784 2
E 769 778 1
E 769 779 1
E 771 785 2
E 771 793 4
E 772 785 2
E 772 816 10
E 773 780 1
E 774 781 1
E 774 800 6
E 775 782 1
E 776 788 3
E 777 783 1
E 777 784 1
E 778 787 2
E 779 822 10
E 780 794 3
E 780 800 5
E 781 802 6
E 781 824 10
E 782 795 3
E 783 786 1
E 783 788 2
E 784 786 1
E 784 787 1
E 785 799 4
E 786 789 1
E 786 796 2
E 787 789 1
E 787 790 1
E 788 801 3
E 789 797 1
E 789 798 2
E 790 797 1
E 791 822 7
E 793 799 2
E 793 823 7
E 794 805 4
E 794 818 6
E 795 803 3
E 796 804 3
E 797 814 5
E 797 841 10
E 798 809 3
E 800 802 1
E 800 831 7
E 801 804 1
E 802 818 3
E 802 853 10
E 803 807 1
E 803 820 3
E 804 808 1
E 804 809 1
E 805 817 2
E 805 831 5
E 806 811 1
E 806 825 3
E 807 819 2
E 807 826 3
E 808 813 1
E 808 827 3
E 809 813 1
E 809 814 1
E 810 816 1
E 810 817 1
E 811 824 2
E 811 843 6
E 812 819 1
E 812 832 4
E 813 821 1
E 813 829 3
E 814 821 1
E 814 860 10
E 815 823 1
E 815 857 9
E 817 842 5
E 818 837 4
E 818 862 10
E 819 825 1
E 819 833 3
E 820 826 1
E 820 827 1
E 821 835 3
E 823 836 3
E 824 832 2
E 824 853 6
E 825 832 4
E 825 838 3
E 825 863 9
E 826 828 1
E 826 833 2
E 827 828 1
E 827 829 1
E 828 834 1
E 828 839 2
E 829 834 1
E 829 835 1
E 830 851 4
E 830 855 5
E 831 837 1
E 831 842 2
E 832 859 6
E 833 838 1
E 833 839 1
E 834 840 1
E 834 845 2
E 835 840 1
E 835 869 10
E 836 861 6
E 837 847 2
E 837 872 10
E 838 843 1
E 838 844 1
E 839 844 1
E 839 845 1
E 840 850 2
E 840 874 10
E 841 860 5
E 842 846 1
E 842 847 1
E 843 848 1
E 843 868 8
E 844 848 1
E 844 849 1
E 845 849 1
E 845 850 1
E 846 852 1
E 846 855 2
E 847 852 1
E 847 881 10
E 848 854 1
E 848 873 8
E 849 854 1
E 850 884 10
E 851 865 5
E 851 871 7
E 852 858 2
E 852 886 10
E 853 859 2
E 853 862 3
E 854 856 1
E 854 878 8
E 855 858 1
E 855 865 4
E 856 892 10
E 857 861 1
E 858 867 4
E 858 896 10
E 859 863 1
E 859 882 7
E 861 866 3
E 862 872 4
E 862 883 6
E 863 868 3
E 863 887 7
E 864 875 3
E 865 867 1
E 865 895 7
E 866 870 1
E 866 877 2
E 867 902 7
E 867 911 10
E 868 873 1
E 868 883 3
E 869 874 1
E 869 875 1
E 870 876 1
E 871 895 5
E 871 910 9
E 872 881 2
E 872 882 2
E 873 878 1
E 873 888 3
E 874 879 1
E 874 884 2
E 875 879 1
E 875 901 5
E 876 885 2
E 876 894 4
E 877 880 1
E 877 920 10
E 878 891 3
E 879 889 2
E 880 885 1
E 880 926 10
E 881 886 1
E 881 890 2
E 882 887 1
E 882 890 2
E 883 888 1
E 883 904 4
E 884 889 1
E 885 905 4
E 885 931 10
E 886 896 2
E 886 897 2
E 887 898 2
E 887 904 3
E 888 891 1
E 888 907 4
E 889 893 1
E 890 897 1
E 890 898 1
E 891 899 1
E 891 909 4
E 892 900 1
E 893 900 1
E 893 915 5
E 894 905 2
E 894 925 7
E 895 902 1
E 895 937 9
E 896 906 2
E 896 911 4
E 897 903 1
E 897 906 2
E 898 903 1
E 899 914 4
E 899 944 10
E 900 918 5
E 900 934 8
E 902 942 9
E 902 947 10
E 903 908 2
E 903 912 3
E 904 907 1
E 906 908 1
E 906 921 4
E 907 909 1
E 907 913 2
E 908 922 3
E 908 927 4
E 909 914 1
E 909 917 2
E 910 937 5
E 911 921 2
E 911 947 7
E 912 916 1
E 912 922 2
E 913 916 1
E 913 917 1
E 914 924 2
E 915 918 1
E 916 923 1
E 916 928 2
E 917 923 1
E 917 924 1
E 919 925 1
E 919 958 9
E 920 926 1
E 921 927 1
E 921 953 7
E 922 928 1
E 922 943 4
E 923 929 1
E 923 933 2
E 924 929 1
E 925 959 9
E 926 931 1
E 926 932 1
E 927 943 3
E 927 957 7
E 928 933 1
E 928 948 4
E 929 938 2
E 930 939 2
E 931 936 1
E 932 936 1
E 932 956 6
E 933 938 1
E 933 950 4
E 935 940 1
E 935 946 2
E 936 951 4
E 936 955 5
E 937 942 1
E 937 949 3
E 940 945 1
E 941 946 1
E 941 971 10
E 942 952 3
E 942 973 10
E 943 948 1
E 943 962 7
E 945 960 6
E 947 953 2
E 947 973 9
E 948 950 1
E 948 964 7
E 949 952 1
E 949 955 2
E 950 968 7
E 951 961 8
E 951 972 7
E 951 1029 18
E 952 956 1
E 952 986 10
E 953 957 1
E 953 982 9
E 954 966 5
E 954 991 10
E 955 999 11
E 957 962 3
E 957 987 9
E 958 959 1
E 959 967 3
E 960 965 2
E 960 966 2
E 961 1007 10
E 961 1056 18
E 962 964 1
E 962 974 3
E 963 994 7
E 964 968 1
E 964 978 3
E 965 969 1
E 965 970 1
E 966 976 2
E 966 1015 10
E 967 977 2
E 967 998 6
E 968 983 3
E 969 975 1
E 969 984 3
E 970 975 1
E 970 976 1
E 971 1003 6
E 972 999 5
E 973 982 2
E 973 986 3
E 974 978 1
E 975 980 1
E 975 990 3
E 976 980 1
E 976 1025 10
E 977 1006 6
E 977 1027 10
E 978 983 1
E 978 1010 6
E 979 984 1
E 980 996 3
E 980 1034 10
E 981 985 1
E 981 1004 5
E 982 987 1
E 982 1001 3
E 983 988 1
E 983 1014 6
E 984 989 1
E 984 990 1
E 985 992 1
E 985 1011 5
E 986 1000 2
E 986 1001 2
E 987 1009 4
E 988 1020 6
E 988 1046 10
E 989 995 1
E 990 995 1
E 990 996 1
E 991 997 1
E 991 1015 5
E 992 997 1
E 992 1016 5
E 993 1003 2
E 995 1002 1
E 995 1047 9
E 996 1002 1
E 997 1021 5
E 998 1006 2
E 998 1037 7
E 999 1028 6
E 999 1049 9
E 1000 1007 2
E 1000 1008 2
E 1002 1058 10
E 1003 1004 1
E 1003 1036 6
E 1004 1011 1
E 1004 1041 6
E 1005 1017 2
E 1007 1018 2
E 1007 1028 14
E 1007 1102 18
E 1008 1012 1
E 1008 1018 2
E 1009 1012 1
E 1009 1013 1
E 1010 1014 1
E 1010 1024 3
E 1011 1016 1
E 1011 1048 6
E 1012 1019 1
E 1012 1022 2
E 1013 1019 1
E 1013 1023 2
E 1014 1020 1
E 1014 1033 3
E 1015 1025 2
E 1016 1021 1
E 1016 1054 6
E 1018 1022 1
E 1018 1029 2
E 1019 1030 2
E 1019 1031 2
E 1020 1045 4
E 1021 1053 5
E 1021 1059 6
E 1022 1030 1
E 1022 1038 2
E 1023 1031 1
E 1023 1032 1
E 1024 1032 1
E 1025 1034 1
E 1025 1035 1
E 1026 1037 1
E 1026 1062 6
E 1028 1069 7
E 1028 1075 9
E 1029 1038 1
E 1029 1069 7
E 1030 1042 2
E 1030 1043 2
E 1031 1039 1
E 1031 1043 2
E 1032 1039 1
E 1032 1040 1
E 1033 1040 1
E 1035 1061 5
E 1036 1041 1
E 1036 1078 9
E 1037 1066 6
E 1038 1042 1
E 1038 1072 7
E 1039 1044 1
E 1039 1050 2
E 1040 1044 1
E 1040 1045 1
E 1041 1048 1
E 1041 1081 9
E 1042 1060 3
E 1042 1076 7
E 1043 1050 1
E 1043 1083 9
E 1044 1051 1
E 1044 1057 2
E 1045 1051 1
E 1045 1091 10
E 1047 1052 1
E 1048 1054 1
E 1048 1085 9
E 1049 1056 1
E 1049 1063 3
E 1050 1057 1
E 1050 1060 2
E 1051 1097 10
E 1053 1061 2
E 1053 1077 6
E 1054 1059 1
E 1054 1092 9
E 1055 1062 2
E 1056 1068 3
E 1056 1075 5
E 1057 1096 9
E 1058 1151 24
E 1059 1077 5
E 1059 1098 9
E 1060 1090 7
E 1061 1084 6
E 1062 1065 1
E 1062 1066 1
E 1063 1068 1
E 1063 1157 25
E 1065 1071 1
E 1065 1073 2
E 1066 1071 1
E 1066 1074 2
E 1067 1101 7
E 1067 1116 11
E 1068 1089 5
E 1069 1072 1
E 1069 1109 9
E 1070 1078 2
E 1070 1079 2
E 1071 1080 2
E 1072 1076 1
E 1072 1114 9
E 1073 1079 1
E 1073 1080 1
E 1074 1120 10
E 1075 1089 3
E 1075 1102 5
E 1076 1083 2
E 1076 1117 9
E 1077 1084 2
E 1077 1118 9
E 1078 1081 1
E 1078 1086 2
E 1079 1082 1
E 1079 1086 2
E 1080 1082 1
E 1080 1088 2
E 1081 1085 1
E 1081 1093 2
E 1082 1087 1
E 1082 1095 2
E 1083 1090 1
E 1083 1124 9
E 1084 1125 9
E 1085 1092 1
E 1085 1099 2
E 1086 1093 1
E 1086 1094 1
E 1087 1094 1
E 1088 1095 1
E 1088 1130 10
E 1089 1113 5
E 1089 1116 6
E 1090 1096 1
E 1090 1128 9
E 1091 1097 1
E 1092 1098 1
E 1092 1104 2
E 1093 1099 1
E 1093 1100 1
E 1094 1100 1
E 1094 1106 2
E 1095 1106 2
E 1095 1133 10
E 1096 1103 1
E 1096 1131 9
E 1098 1118 5
E 1099 1104 1
E 1099 1105 1
E 1100 1105 1
E 1100 1108 2
E 1101 1166 23
E 1102 1109 2
E 1102 1113 3
E 1103 1135 9
E 1104 1107 1
E 1105 1107 1
E 1105 1112 2
E 1106 1108 1
E 1106 1140 10
E 1107 1111 1
E 1107 1115 2
E 1108 1112 1
E 1108 1143 10
E 1109 1114 1
E 1109 1121 3
E 1110 1224 49
E 1111 1119 2
E 1111 1129 5
E 1112 1115 1
E 1113 1121 2
E 1113 1178 26
E 1114 1117 1
E 1114 1123 3
E 1115 1119 1
E 1115 1206 35
E 1116 1141 7
E 1116 1165 19
E 1117 1124 2
E 1117 1127 3
E 1118 1125 2
E 1118 1126 2
E 1119 1137 5
E 1121 1123 1
E 1121 1141 6
E 1123 1127 1
E 1123 1184 25
E 1124 1128 1
E 1124 1134 3
E 1125 1132 2
E 1126 1129 1
E 1126 1132 2
E 1127 1134 2
E 1127 1148 6
E 1128 1131 1
E 1128 1138 3
E 1129 1136 2
E 1129 1137 2
E 1130 1133 1
E 1131 1135 1
E 1131 1142 3
E 1132 1136 1
E 1133 1140 2
E 1134 1138 1
E 1134 1152 6
E 1135 1145 3
E 1136 1139 1
E 1138 1142 1
E 1138 1156 6
E 1139 1146 2
E 1139 1149 3
E 1140 1143 1
E 1140 1144 1
E 1141 1148 2
E 1141 1180 19
E 1142 1145 1
E 1142 1158 6
E 1143 1147 1
E 1144 1147 1
E 1144 1157 5
E 1145 1161 6
E 1146 1154 3
E 1146 1163 10
E 1147 1155 3
E 1147 1160 5
E 1148 1152 2
E 1148 1187 19
E 1149 1151 1
E 1149 1154 2
E 1150 1153 1
E 1150 1204 24
E 1151 1167 9
E 1152 1156 1
E 1153 1207 24
E 1154 1171 10
E 1154 1172 10
E 1155 1162 5
E 1155 1164 7
E 1156 1158 1
E 1156 1166 7
E 1157 1160 1
E 1157 1165 6
E 1158 1161 1
E 1158 1169 7
E 1159 1212 24
E 1160 1162 3
E 1160 1168 6
E 1161 1203 20
E 1161 1218 27
E 1162 1175 6
E 1162 1176 7
E 1163 1172 3
E 1164 1176 5
E 1165 1168 1
E 1165 1180 7
E 1166 1169 1
E 1166 1179 6
E 1167 1170 1
E 1167 1171 2
E 1168 1175 3
E 1168 1178 5
E 1169 1182 6
E 1170 1173 2
E 1170 1174 2
E 1171 1174 1
E 1171 1196 10
E 1172 1196 10
E 1173 1177 2
E 1173 1204 12
E 1174 1177 2
E 1174 1200 10
E 1175 1192 7
E 1175 1197 9
E 1176 1192 6
E 1176 1233 29
E 1177 1205 10
E 1177 1210 12
E 1178 1183 2
E 1178 1247 39
E 1179 1181 1
E 1180 1183 1
E 1180 1184 1
E 1181 1185 1
E 1181 1188 2
E 1182 1185 1
E 1183 1186 1
E 1183 1211 10
E 1184 1186 1
E 1184 1187 1
E 1185 1191 2
E 1186 1189 1
E 1186 1249 39
E 1187 1189 1
E 1188 1190 1
E 1189 1197 3
E 1189 1198 3
E 1190 1193 1
E 1190 1194 1
E 1191 1194 1
E 1192 1211 7
E 1193 1195 1
E 1194 1195 1
E 1194 1218 11
E 1195 1199 1
E 1195 1220 11
E 1196 1200 1
E 1197 1208 4
E 1197 1216 7
E 1198 1201 1
E 1198 1219 10
E 1199 1201 1
E 1199 1222 11
E 1200 1205 2
E 1201 1202 1
E 1201 1203 1
E 1202 1206 1
E 1204 1207 1
E 1204 1210 2
E 1205 1225 13
E 1205 1233 18
E 1206 1208 1
E 1207 1209 1
E 1207 1213 2
E 1208 1217 5
E 1208 1223 11
E 1209 1212 1
E 1209 1215 2
E 1210 1213 1
E 1210 1233 16
E 1211 1216 2
E 1211 1248 29
E 1212 1214 1
E 1213 1215 1
E 1213 1225 10
E 1215 1228 10
E 1216 1219 3
E 1216 1250 29
E 1217 1221 2
E 1218 1220 1
E 1218 1224 6
E 1219 1221 1
E 1219 1252 29
E 1220 1222 1
E 1220 1226 6
E 1221 1234 11
E 1221 1238 14
E 1222 1229 6
E 1223 1234 7
E 1224 1226 1
E 1224 1227 1
E 1225 1228 1
E 1226 1229 1
E 1229 1230 1
E 1229 1231 1
E 1230 1232 1
E 1230 1269 42
E 1231 1232 1
E 1231 1236 5
E 1232 1237 5
E 1232 1270 42
E 1234 1264 29
E 1235 1236 1
E 1235 1243 7
E 1236 1237 1
E 1236 1245 7
E 1237 1246 7
E 1238 1239 1
E 1239 1241 2
E 1240 1242 1
E 1241 1255 12
E 1242 1244 1
E 1242 1251 9
E 1243 1245 1
E 1245 1246 1
E 1246 1273 42
E 1247 1248 2
E 1248 1249 1
E 1249 1250 1
E 1250 1252 3
E 1251 1256 3
E 1252 1254 1
E 1252 1255 1
E 1253 1260 3
E 1254 1256 1
E 1254 1257 1
E 1255 1257 1
E 1255 1264 11
E 1256 1258 1
E 1256 1259 1
E 1257 1259 1
E 1257 1265 11
E 1258 1260 1
E 1258 1261 1
E 1259 1261 1
E 1259 1266 11
E 1260 1262 1
E 1261 1262 1
E 1261 1267 11
E 1262 1263 3
E 1262 1268 11
E 1264 1265 1
E 1265 1266 1
E 1266 1267 1
E 1267 1268 1
E 1267 1269 6
E 1269 1270 1
E 1270 1271 1
E 1271 1272 5
E 1272 1274 7
E 1273 1274 1
E 1 1275 1000000
E 2 1275 1000000
E 3 1275 1000000
E 4 1275 1000000
E 5 1276 1000000
E 6 1276 1000000
E 7 1276 1000000
E 8 1276 1000000
E 9 1276 1000000
E 10 1276 1000000
E 11 1277 1000000
E 12 1277 1000000
E 13 1277 1000000
E 14 1277 1000000
E 15 1277 1000000
E 16 1277 1000000
E 17 1277 1000000
E 18 1277 1000000
E 19 1278 1000000
E 20 1278 1000000
E 21 1278 1000000
E 22 1278 1000000
E 23 1278 1000000
E 24 1279 1000000
E 25 1279 1000000
E 26 1280 1000000
E 27 1280 1000000
E 28 1280 1000000
E 29 1280 1000000
E 30 1281 1000000
E 31 1281 1000000
E 32 1281 1000000
E 33 1282 1000000
E 34 1282 1000000
E 35 1282 1000000
E 36 1283 1000000
E 37 1283 1000000
E 38 1283 1000000
E 39 1284 1000000
E 40 1284 1000000
E 41 1284 1000000
E 42 1285 1000000
E 43 1285 1000000
E 44 1285 1000000
E 45 1285 1000000
E 46 1286 1000000
E 47 1286 1000000
E 48 1287 1000000
E 49 1287 1000000
E 50 1288 1000000
E 51 1288 1000000
E 52 1289 1000000
E 53 1289 1000000
E 54 1290 1000000
E 55 1290 1000000
E 56 1291 1000000
E 57 1291 1000000
E 58 1292 1000000
E 59 1292 1000000
E 60 1293 1000000
E 61 1293 1000000
E 62 1294 1000000
E 63 1294 1000000
E 64 1295 1000000
E 65 1295 1000000
E 66 1296 1000000
E 67 1296 1000000
E 68 1297 1000000
E 69 1297 1000000
E 70 1298 1000000
E 71 1298 1000000
E 72 1299 1000000
E 73 1299 1000000
E 74 1300 1000000
E 75 1300 1000000
E 76 1301 1000000
E 77 1301 1000000
E 78 1302 1000000
E 79 1302 1000000
E 80 1303 1000000
E 81 1303 1000000
E 82 1304 1000000
E 83 1304 1000000
E 84 1304 1000000
E 85 1304 1000000
E 86 1304 1000000
E 87 1304 1000000
E 88 1305 1000000
E 89 1305 1000000
E 90 1306 1000000
E 91 1306 1000000
E 92 1307 1000000
E 93 1307 1000000
E 94 1308 1000000
E 95 1308 1000000
E 96 1309 1000000
E 97 1309 1000000
E 98 1310 1000000
E 99 1310 1000000
E 100 1311 1000000
E 101 1311 1000000
E 102 1312 1000000
E 103 1312 1000000
E 104 1312 1000000
E 105 1313 1000000
E 106 1313 1000000
E 107 1314 1000000
E 108 1314 1000000
E 109 1314 1000000
E 110 1315 1000000
E 111 1315 1000000
E 112 1316 1000000
E 113 1316 1000000
E 114 1316 1000000
E 115 1317 1000000
E 116 1317 1000000
E 117 1318 1000000
E 118 1318 1000000
E 119 1318 1000000
E 120 1319 1000000
E 121 1319 1000000
E 122 1319 1000000
E 123 1320 1000000
E 124 1320 1000000
E 125 1320 1000000
E 126 1321 1000000
E 127 1321 1000000
E 128 1321 1000000
E 129 1322 1000000
E 130 1322 1000000
E 131 1322 1000000
E 132 1323 1000000
E 133 1323 1000000
E 134 1323 1000000
E 135 1323 1000000
E 136 1324 1000000
E 137 1324 1000000
E 138 1325 1000000
E 139 1325 1000000
E 140 1326 1000000
E 141 1326 1000000
E 142 1327 1000000
E 143 1327 1000000
E 144 1328 1000000
E 145 1328 1000000
E 146 1329 1000000
E 147 1329 1000000
E 148 1330 1000000
E 149 1330 1000000
E 150 1331 1000000
E 151 1331 1000000
E 152 1332 1000000
E 153 1332 1000000
E 154 1333 1000000
E 155 1333 1000000
E 156 1334 1000000
E 157 1334 1000000
E 158 1335 1000000
E 159 1335 1000000
E 160 1336 1000000
E 161 1336 1000000
E 162 1337 1000000
E 163 1337 1000000
E 164 1338 1000000
E 165 1338 1000000
E 166 1339 1000000
E 167 1339 1000000
E 168 1340 1000000
E 169 1340 1000000
E 170 1341 1000000
E 171 1341 1000000
E 172 1341 1000000
E 173 1341 1000000
E 174 1341 1000000
E 175 1341 1000000
E 176 1342 1000000
E 177 1342 1000000
E 178 1343 1000000
E 179 1343 1000000
E 180 1344 1000000
E 181 1344 1000000
E 182 1345 1000000
E 183 1345 1000000
E 184 1346 1000000
E 185 1346 1000000
E 186 1346 1000000
E 187 1347 1000000
E 188 1347 1000000
E 189 1348 1000000
E 190 1348 1000000
E 191 1348 1000000
E 192 1349 1000000
E 193 1349 1000000
E 194 1350 1000000
E 195 1350 1000000
E 196 1350 1000000
E 197 1350 1000000
E 198 1351 1000000
E 199 1351 1000000
E 200 1352 1000000
E 201 1352 1000000
E 202 1353 1000000
E 203 1353 1000000
E 204 1354 1000000
E 205 1354 1000000
E 206 1355 1000000
E 207 1355 1000000
E 208 1356 1000000
E 209 1356 1000000
E 210 1357 1000000
E 211 1357 1000000
E 212 1358 1000000
E 213 1358 1000000
E 214 1359 1000000
E 215 1359 1000000
E 216 1359 1000000
E 217 1359 1000000
E 218 1360 1000000
E 219 1276 1000000
E 220 1277 1000000
E 221 1277 1000000
E 222 1277 1000000
E 223 1277 1000000
E 224 1278 1000000
E 225 1278 1000000
E 226 1278 1000000
E 227 1278 1000000
E 228 1278 1000000
E 229 1278 1000000
E 230 1280 1000000
E 231 1280 1000000
E 232 1280 1000000
E 233 1280 1000000
E 234 1280 1000000
E 235 1304 1000000
END

SECTION Terminals
Terminals 86
T 1275
T 1276
T 1277
T 1278
T 1279
T 1280
T 1281
T 1282
T 1283
T 1284
T 1285
T 1286
T 1287
T 1288
T 1289
T 1290
T 1291
T 1292
T 1293
T 1294
T 1295
T 1296
T 1297
T 1298
T 1299
T 1300
T 1301
T 1302
T 1303
T 1304
T 1305
T 1306
T 1307
T 1308
T 1309
T 1310
T 1311
T 1312
T 1313
T 1314
T 1315
T 1316
T 1317
T 1318
T 1319
T 1320
T 1321
T 1322
T 1323
T 1324
T 1325
T 1326
T 1327
T 1328
T 1329
T 1330
T 1331
T 1332
T 1333
T 1334
T 1335
T 1336
T 1337
T 1338
T 1339
T 1340
T 1341
T 1342
T 1343
T 1344
T 1345
T 1346
T 1347
T 1348
T 1349
T 1350
T 1351
T 1352
T 1353
T 1354
T 1355
T 1356
T 1357
T 1358
T 1359
T 1360
END

EOF
